Maximize
 obj: 0 X1
Subject To
 c1:
  + 9220 X1 + 6260 X2 + 8050 X3 + 9310 X4 + 6770 X5 + 1080 X6 + 2210 X7 + 8720 X8
  + 3720 X9 + 8910 X10
  <= 32120
 obj1:
  + 230 X1 + 870 X2 + 555 X3 + 578 X4 + 995 X5 + 596 X6 + 800 X7 + 819 X8
  + 630 X9 + 504 X10
  >= 1
 obj2:
  + 747 X1 + 816 X2 + 996 X3 + 509 X4 + 700 X5 + 238 X6 + 395 X7 + 870 X8
  + 236 X9 + 292 X10
  >= 2
 obj3:
  + 602 X1 + 556 X2 + 10 X3 + 52 X4 + 303 X5 + 290 X6 + 195 X7 + 264 X8
  + 670 X9 + 299 X10
  >= 3
 obj4:
  + 860 X1 + 900 X2 + 169 X3 + 415 X4 + 477 X5 + 163 X6 + 10 X7 + 277 X8
  + 981 X9 + 640 X10
  >= 4
 obj5:
  + 781 X1 + 727 X2 + 456 X3 + 777 X4 + 235 X5 + 155 X6 + 14 X7 + 630 X8
  + 25 X9 + 250 X10
  >= 5
Binary
 X1
 X2
 X3
 X4
 X5
 X6
 X7
 X8
 X9
 X10
End
